c CNF-Signature AND_12
c 
c $p 12 1
c $m (1,2,3,4,5,6,7,8,9,10,11,12,13)
c $i 1
c $i 2
c $i 3
c $i 4
c $i 5
c $i 6
c $i 7
c $i 8
c $i 9
c $i 10
c $i 11
c $i 12
c $o 13
p cnf 13 13
1 -13 0
2 -13 0
3 -13 0
4 -13 0
5 -13 0
6 -13 0
7 -13 0
8 -13 0
9 -13 0
10 -13 0
11 -13 0
12 -13 0
-1 -2 -3 -4 -5 -6 -7 -8 -9 -10 -11 -12 13 0
